Cars = 1..200;
Options = 1..5;
Classes = 1..25;
sequenceMinCapacity = [0, 0, 0, 0, 0];
sequenceMaxCapacity = [1, 2, 1, 2, 1];
sequenceSize = [2, 3, 3, 5, 5];
numOrdered = [1, 1, 1, 2, 55, 5, 4, 5, 6, 2, 1, 4, 1, 22, 16, 16, 25, 6, 1, 4, 5, 6, 1, 6, 4];
classHasOption = [|false, false,  true,  true,  true
                  | true,  true,  true, false,  true
                  |false,  true,  true,  true, false
                  |false,  true,  true, false,  true
                  |false,  true, false, false, false
                  |false,  true, false, false,  true
                  |false, false, false,  true,  true
                  | true, false,  true,  true, false
                  | true, false, false, false,  true
                  | true,  true,  true, false, false
                  | true,  true, false,  true, false
                  | true, false,  true, false, false
                  |false,  true, false,  true,  true
                  | true, false, false, false, false
                  | true,  true, false, false, false
                  |false, false,  true, false, false
                  |false, false, false,  true, false
                  |false,  true,  true, false, false
                  | true, false, false,  true,  true
                  |false, false,  true,  true, false
                  | true, false, false,  true, false
                  |false,  true, false,  true, false
                  |false, false,  true, false,  true
                  |false, false, false, false,  true
                  | true,  true,  true, false, false|];
optionOrdering = [3, 5, 1, 4, 2];
